NAME : XML100_3151_07
DIMENSION : 101
NB_CLUSTERS : 6
CLUSTERING_ALG : KMedoids
CLUSTERING_PARAMS : k(5)
CLUSTERS
1 0
2 5 12 15 19 24 33 34 41 43 48 58 62 70 71 78 84 85 90 91
3 1 7 16 28 29 36 40 44 51 53 60 61 64 69 73 76 79 81 86 95 100
4 6 10 11 17 18 21 27 38 47 49 50 57 59 63 72 82 92 99
5 2 3 4 8 9 13 20 22 23 26 30 31 32 39 52 65 66 67 68 74 77 80 83 88 89 93 94 97
6 14 25 35 37 42 45 46 54 55 56 75 87 96 98
EOF